GPU_version/outputs/r201.out
Total number of lines in the file: 110
Total number of nodes including depot: 101
Customer 1: (35, 35), Demand: 0, Time Window: [0, 1000], Service Time: 0
Customer 2: (41, 49), Demand: 10, Time Window: [707, 848], Service Time: 10
Customer 3: (35, 17), Demand: 7, Time Window: [143, 282], Service Time: 10
Customer 4: (55, 45), Demand: 13, Time Window: [527, 584], Service Time: 10
Customer 5: (55, 20), Demand: 19, Time Window: [678, 801], Service Time: 10
calling MST kernel
Post Processing Route
Post 2 opt Processing Route
2-opt between 69 and 70 improved cost from 2325.75 to 2325.16
Elapsed time: 0.66205 seconds
Final Route: 
Route #1: 28 53 58 
Route #2: 40 26 
Route #3: 12 80 
Route #4: 68 77 
Route #5: 76 50 1 
Route #6: 69 3 
Route #7: 79 78 34 
Route #8: 33 81 9 51 
Route #9: 71 
Route #10: 65 35 
Route #11: 29 24 54 
Route #12: 55 25 
Route #13: 21 73 
Route #14: 72 74 
Route #15: 75 56 4 
Route #16: 39 67 23 22 41 13 
Route #17: 94 
Route #18: 95 97 
Route #19: 92 37 100 
Route #20: 98 59 99 96 93 
Route #21: 85 91 
Route #22: 61 16 44 
Route #23: 14 38 86 
Route #24: 5 84 17 60 
Route #25: 18 
Route #26: 52 83 8 46 
Route #27: 45 82 7 88 
Route #28: 31 70 
Route #29: 30 20 66 
Route #30: 62 10 
Route #31: 90 32 
Route #32: 63 11 19 48 
Route #33: 47 36 49 
Route #34: 64 87 
Route #35: 2 57 
Route #36: 15 43 
Route #37: 42 6 89 
Route #38: 27 
Route #39: Total Distance: 2325.75
Final route is valid
